LAMMPS (2 Sep 2026)
OMP_NUM_THREADS environment is not set. Defaulting to 1 thread.
  using 1 OpenMP thread(s) per MPI task

clear
OMP_NUM_THREADS environment is not set. Defaulting to 1 thread.
  using 1 OpenMP thread(s) per MPI task
units nano
dimension 2
boundary p p p
atom_style atomic
region box block 0 5 0 5 -0.5 0.5 units box
create_box 1 box
Created orthogonal box = (0 0 -0.5) to (5 5 0.5)
  1 by 1 by 1 MPI processor grid
create_atoms 1 single 1 1 0 units box
Created 1 atoms
  using box units in orthogonal box = (0 0 -0.5) to (5 5 0.5)
  create_atoms CPU = 0.001 seconds
mass 1 1
run 0
WARNING: No fixes with time integration, atoms won't move
For more information see https://docs.lammps.org/err0028 (src/verlet.cpp:60)
WARNING: No pairwise cutoff or binsize set. Atom sorting therefore disabled. (src/atom.cpp:2486)
WARNING: Communication cutoff is 0.0. No ghost atoms will be generated. Energies and forces may be wrong and atoms may get lost. (src/comm_brick.cpp:188)
Per MPI rank memory allocation (min/avg/max) = 0.0392 | 0.0392 | 0.0392 Mbytes
   Step          Temp          E_pair         E_mol          TotEng         Press
         0   0              0              0              0              0
Loop time of 1e-06 on 1 procs for 0 steps with 1 atoms

0.0% CPU use with 1 MPI tasks x 1 OpenMP threads

MPI task timing breakdown:
Section |  min time  |  avg time  |  max time  |%varavg| %total
---------------------------------------------------------------
Pair    | 0          | 0          | 0          |   0.0 |  0.00
Neigh   | 0          | 0          | 0          |   0.0 |  0.00
Comm    | 0          | 0          | 0          |   0.0 |  0.00
Output  | 0          | 0          | 0          |   0.0 |  0.00
Modify  | 0          | 0          | 0          |   0.0 |  0.00
Other   |            | 1e-06      |            |       |100.00

Nlocal:              1 ave           1 max           1 min
Histogram: 1 0 0 0 0 0 0 0 0 0
Nghost:              0 ave           0 max           0 min
Histogram: 1 0 0 0 0 0 0 0 0 0
Neighs:              0 ave           0 max           0 min
Histogram: 1 0 0 0 0 0 0 0 0 0

Total # of neighbors = 0
Ave neighs/atom = 0
Neighbor list builds = 0
Dangerous builds = 0

Total wall time: 0:00:00
